SCIP version 0.82 [precision: 8 byte] [memory: block] [mode: optimized] [LP solver: SOPLEX 1.3.0]
Copyright (c) 2002-2006 Konrad-Zuse-Zentrum fuer Informationstechnik Berlin (ZIB)

reading parameter file <scip.set>

read problem </ufs/psxjm3/instances/random_8.ctt.e.zpl>
============

****************************************************
* Zuse Institute Mathematical Programming Language *
* Release 2.04  Copyright (C)2005 by Thorsten Koch *
****************************************************

original problem has 46206 variables (46105 bin, 101 int, 0 impl, 0 cont) and 11860 constraints

solve problem
=============

LP Solver <SOPLEX 1.3.0>: dual feasibility tolerance cannot be set -- tolerance of SCIP and LP solver may differ
LP Solver <SOPLEX 1.3.0>: barrier convergence tolerance cannot be set -- tolerance of SCIP and LP solver may differ
LP Solver <SOPLEX 1.3.0>: fastmip setting not available -- SCIP parameter has no effect
LP Solver <SOPLEX 1.3.0>: scaling not available -- SCIP parameter has no effect
LP Solver <SOPLEX 1.3.0>: presolving not available -- SCIP parameter has no effect
transformed problem has 46206 variables (46105 bin, 101 int, 0 impl, 0 cont) and 11860 constraints
  11860 constraints of type <linear>

presolving:
(round 1) 6235 del vars, 463 del conss, 6235 chg bounds, 0 chg sides, 0 chg coeffs, 0 upgd conss, 0 impls, 6177 clqs
(round 2) 6235 del vars, 907 del conss, 6235 chg bounds, 0 chg sides, 0 chg coeffs, 0 upgd conss, 0 impls, 6177 clqs
(round 3) 6235 del vars, 3694 del conss, 6235 chg bounds, 2790 chg sides, 0 chg coeffs, 0 upgd conss, 0 impls, 6177 clqs
(round 4) 6235 del vars, 3694 del conss, 6235 chg bounds, 2790 chg sides, 0 chg coeffs, 7627 upgd conss, 0 impls, 6177 clqs
(round 5) 6235 del vars, 3867 del conss, 6235 chg bounds, 2790 chg sides, 18 chg coeffs, 7627 upgd conss, 0 impls, 6177 clqs
   (153.5s) probing: 100/39870 (0.3%) - 0 fixings, 0 aggregations, 9 implications, 0 bound changes
   (159.7s) probing: 200/39870 (0.5%) - 0 fixings, 0 aggregations, 36 implications, 0 bound changes
   (166.1s) probing: 300/39870 (0.8%) - 0 fixings, 0 aggregations, 54 implications, 0 bound changes
   (172.4s) probing: 400/39870 (1.0%) - 0 fixings, 0 aggregations, 63 implications, 0 bound changes
   (178.6s) probing: 500/39870 (1.3%) - 0 fixings, 0 aggregations, 76 implications, 0 bound changes
presolving (6 rounds):
 6235 deleted vars, 3867 deleted constraints, 6235 tightened bounds, 0 added holes, 2790 changed sides, 18 changed coefficients
 152 implications, 6177 cliques
presolved problem has 39971 variables (39870 bin, 101 int, 0 impl, 0 cont) and 7993 constraints
   3000 constraints of type <knapsack>
   3995 constraints of type <setppc>
    539 constraints of type <linear>
    459 constraints of type <logicor>
objective value is always integral
Presolving Time: 183.05

 time | node  | left  |LP iter| mem |mdpt |frac |vars |cons |ccons|cols |rows |cuts |confs|strbr|  dualbound   | primalbound  |  gap   
  256s|     1 |     0 |  7671 | 320M|   0 |1055 |  39k|7993 |7993 |  39k|7993 |   0 |   0 |   0 | 4.110000e+02 |      --      |    Inf 
  276s|     1 |     0 |  9217 | 321M|   0 |1176 |  39k|7993 |7993 |  39k|7999 |   6 |   0 |   0 | 4.110000e+02 |      --      |    Inf 
  349s|     1 |     0 | 14559 | 321M|   0 |1232 |  39k|7993 |7993 |  39k|8005 |  12 |   0 |   0 | 4.110000e+02 |      --      |    Inf 
  389s|     1 |     0 | 17354 | 321M|   0 |1227 |  39k|7993 |7993 |  39k|8012 |  19 |   0 |   0 | 4.110000e+02 |      --      |    Inf 
  416s|     1 |     0 | 19098 | 321M|   0 |1239 |  39k|7993 |7993 |  39k|8019 |  26 |   0 |   0 | 4.110000e+02 |      --      |    Inf 
  445s|     1 |     0 | 21008 | 321M|   0 |1251 |  39k|7993 |7993 |  39k|8024 |  31 |   0 |   0 | 4.110000e+02 |      --      |    Inf 
  514s|     1 |     0 | 25664 | 321M|   0 |1303 |  39k|7993 |7993 |  39k|8030 |  37 |   0 |   0 | 4.110000e+02 |      --      |    Inf 
  999s|     1 |     2 | 35664 | 322M|   0 |1303 |  39k|7993 |7993 |  39k|8030 |  37 |   0 |  22 | 4.110000e+02 |      --      |    Inf 

SCIP Status        : solving was interrupted [time limit reached]
Solving Time (sec) : 7216.71
Solving Nodes      : 86
Primal Bound       : +1.00000000000000e+20 (0 solutions)
Dual Bound         : +4.11000000000001e+02
Gap                : infinite

primal solution:
================

no solution available

Statistics
==========

SCIP Status        : solving was interrupted [time limit reached]
Solving Time       :    7216.71
Original Problem   :
  Problem name     : random_8.ctt.e.zpl
  Variables        : 46206 (46105 binary, 101 integer, 0 implicit integer, 0 continuous)
  Constraints      : 11860 initial, 11860 maximal
Presolved Problem  :
  Problem name     : t_random_8.ctt.e.zpl
  Variables        : 39971 (39870 binary, 101 integer, 0 implicit integer, 0 continuous)
  Constraints      : 7993 initial, 7993 maximal
Presolvers         :       Time  FixedVars   AggrVars   ChgTypes  ChgBounds   AddHoles    DelCons   ChgSides   ChgCoefs
  trivial          :       0.04          0          0          0          0          0          0          0          0
  inttobinary      :       0.00          0          0          0          0          0          0          0          0
  dualfix          :       0.02          0          0          0          0          0          0          0          0
  implics          :       0.02          0          0          0          0          0          0          0          0
  probing          :      38.45          0          0          0          0          0          0          0          0
  knapsack         :      93.45          0          0          0          0          0          0          0         18
  setppc           :       1.65          0          0          0          0          0        173          0          0
  linear           :      48.63       6235          0          0       6235          0       3694       2790          0
  logicor          :       0.01          0          0          0          0          0          0          0          0
  root node        :          -          0          -          -          0          -          -          -          -
Constraints        :     Number  #Separate #Propagate    #EnfoLP    #EnfoPS    Cutoffs    DomReds       Cuts      Conss   Children
  integral         :          0          0          0         86          0          0          0          0          0        172
  knapsack         :       3000          6       1413          0          0          0          1          0          0          0
  setppc           :       3995          6       1413          0          0          0       8879          0          0          0
  linear           :        539          6       1289          0          0          0       1484          0          0          0
  logicor          :        459          6        586          0          0          0         20          0          0          0
Constraint Timings :  TotalTime   Separate  Propagate     EnfoLP     EnfoPS
  integral         :    3513.50       0.00       0.00    3513.50       0.00
  knapsack         :       3.45       2.83       0.62       0.00       0.00
  setppc           :       0.70       0.00       0.70       0.00       0.00
  linear           :      30.12       0.70      29.42       0.00       0.00
  logicor          :       0.04       0.01       0.03       0.00       0.00
Propagators        :       Time      Calls    Cutoffs    DomReds
  rootredcost      :       0.00          0          0          0
  pseudoobj        :       0.00        159          0          0
Conflict Analysis  :       Time      Calls    Success  Conflicts   Literals    Reconvs ReconvLits   LP Iters
  propagation      :       0.00          0          0          0        0.0          0        0.0          -
  infeasible LP    :       0.00          0          0          0        0.0          0        0.0          0
  bound exceed. LP :       0.00          0          0          0        0.0          0        0.0          0
  strong branching :       0.00          0          0          0        0.0          0        0.0          0
  pseudo solution  :       0.00          0          0          0        0.0          0        0.0          -
  applied globally :          -          -          -          0        0.0          -          -          -
  applied locally  :          -          -          -          0        0.0          -          -          -
Separators         :       Time      Calls    Cutoffs    DomReds       Cuts      Conss
  cut pool         :       0.00          5          -          -          3          -    (maximal pool size: 37)
  redcost          :       0.69         91          0          0          0          0
  impliedbounds    :       0.05          6          0          0          0          0
  intobj           :       0.00          0          0          0          0          0
  gomory           :       3.88          6          0          0          0          0
  strongcg         :       4.30          6          0          0          0          0
  cmir             :       7.45          6          0          0          0          0
  clique           :       0.89          6          0          0         34          0
Pricers            :       Time      Calls       Vars
  problem variables:       0.00          0          0
Branching Rules    :       Time      Calls    Cutoffs    DomReds       Cuts      Conss   Children
  relpscost        :    3513.50         86          0          0          0          0        172
  pscost           :       0.00          0          0          0          0          0          0
  inference        :       0.00          0          0          0          0          0          0
  mostinf          :       0.00          0          0          0          0          0          0
  leastinf         :       0.00          0          0          0          0          0          0
  fullstrong       :       0.00          0          0          0          0          0          0
  allfullstrong    :       0.00          0          0          0          0          0          0
Primal Heuristics  :       Time      Calls      Found
  LP solutions     :       0.00          -          0
  pseudo solutions :       0.00          -          0
  coefdiving       :       0.00          0          0
  pscostdiving     :       0.00          0          0
  fracdiving       :       0.00          0          0
  objpscostdiving  :       0.00          0          0
  rootsoldiving    :       0.00          0          0
  linesearchdiving :       0.00          0          0
  guideddiving     :       0.00          0          0
  crossover        :       0.00          0          0
  feaspump         :     186.16          1          0
  simplerounding   :       0.71         92          0
  rounding         :       2.63         92          0
  shifting         :       2.28         15          0
  fixandinfer      :       0.00          0          0
  intdiving        :       0.00          0          0
  octane           :       0.00          0          0
  rins             :       0.00          0          0
  localbranching   :       0.00          0          0
LP                 :       Time      Calls Iterations  Iter/call   Iter/sec
  primal LP        :       0.08          0          0       0.00       0.00
  dual LP          :    3302.17         92     257494    2798.85      77.98
  barrier LP       :       0.00          0          0       0.00          -
  diving/probing LP:     186.10          1      10000   10000.00      53.73
  strong branching :    3513.42        259     250865     968.59      71.40
    (at root node) :          -         22      20755     943.41          -
  conflict analysis:       0.00          0          0       0.00          -
B&B Tree           :
  number of runs   :          1
  nodes            :         86
  nodes (total)    :         86
  nodes left       :         87
  max depth        :         85
  max depth (total):         85
  backtracks       :          0 (0.0%)
  delayed cutoffs  :          0
  repropagations   :          0 (0 domain reductions, 0 cutoffs)
  avg switch length:       1.00
  switching time   :       0.21
Solution           :
  Solutions found  :          0 (0 improvements)
  Primal Bound     :          -
  Dual Bound       : +4.11000000000001e+02
  Gap              :   infinite
  Root Dual Bound  : +4.11000000000001e+02
